2426.0
2412.0
2504.0
2317.0
2860.0
2718.0
2508.0
2277.0
2289.0
2480.0
2597.0
2679.0
2500.0
2492.0
2701.0
2606.0
2399.0
2454.0
2666.0
2324.0
2493.0
2617.0
2434.0
2552.0
2343.0
2692.0
2351.0
2843.0
2158.0
2364.0
